(set-logic HORN)
(set-info :source |
  Benchmark: ../golem/build/RealCodeNested/originalcodeLogicOpenSMTsceleton3.c
  Generated by Korn 0.4 https://github.com/gernst/korn
|)


(declare-fun $main_if6 (Int Int Int Int Int Int Int Int Int Int Int Int Int Int Int Int Int Int Int Int Int Int Int Int Int Int Int Int Int Int Int Int Int Int) Bool)
(declare-fun __assert_fail (Int Int Int Int) Bool)
(declare-fun $__VERIFIER_assert_pre (Int) Bool)
(declare-fun $main_sum3 (Int Int Int Int Int Int Int Int Int Int Int Int Int Int Int Int Int) Bool)
(declare-fun $main_sum4 (Int Int Int Int Int Int Int Int Int Int Int Int Int Int Int Int Int) Bool)
(declare-fun $__VERIFIER_assert_if1 (Int Int) Bool)
(declare-fun $main_if4 (Int Int Int Int Int Int Int Int Int Int Int Int Int Int Int Int Int Int Int Int Int Int Int Int Int Int Int Int Int Int Int Int Int Int) Bool)
(declare-fun $main_inv3 (Int Int Int Int Int Int Int Int Int Int Int Int Int Int Int Int Int) Bool)
(declare-fun $main_inv1 (Int Int Int Int Int Int Int Int Int Int Int Int Int Int Int Int Int) Bool)
(declare-fun $main_if5 (Int Int Int Int Int Int Int Int Int Int Int Int Int Int Int Int Int Int Int Int Int Int Int Int Int Int Int Int Int Int Int Int Int Int) Bool)
(declare-fun $main_inv4 (Int Int Int Int Int Int Int Int Int Int Int Int Int Int Int Int Int) Bool)
(declare-fun $main_if3 (Int Int Int Int Int Int Int Int Int Int Int Int Int Int Int Int Int Int Int Int Int Int Int Int Int Int Int Int Int Int Int Int Int Int) Bool)
(declare-fun $main_inv2 (Int Int Int Int Int Int Int Int Int Int Int Int Int Int Int Int Int) Bool)
(declare-fun $main_inv5 (Int Int Int Int Int Int Int Int Int Int Int Int Int Int Int Int Int) Bool)
(declare-fun $main_sum5 (Int Int Int Int Int Int Int Int Int Int Int Int Int Int Int Int Int) Bool)
(declare-fun $main_if7 (Int Int Int Int Int Int Int Int Int Int Int Int Int Int Int Int Int Int Int Int Int Int Int Int Int Int Int Int Int Int Int Int Int Int) Bool)
(declare-fun $main_sum2 (Int Int Int Int Int Int Int Int Int Int Int Int Int Int Int Int Int) Bool)
(declare-fun $main_if2 (Int Int Int Int Int Int Int Int Int Int Int Int Int Int Int Int Int Int Int Int Int Int Int Int Int Int Int Int Int Int Int Int Int Int) Bool)
(declare-fun __VERIFIER_assert (Int) Bool)
(declare-fun $__assert_fail_pre (Int Int Int Int) Bool)
(declare-fun $main_sum1 (Int Int Int Int Int Int Int Int Int Int Int Int Int Int Int Int Int) Bool)
(declare-fun $__VERIFIER_assert_ERROR (Int Int) Bool)

; label ERROR
(assert
  (forall ((cond!1 Int))
    (=> (and (not (not (= cond!1 0)))
             ($__VERIFIER_assert_pre cond!1))
        ($__VERIFIER_assert_ERROR cond!1 cond!1))))

; error
(assert
  (forall ((cond!1 Int) (cond!2 Int))
    (=> (and ($__VERIFIER_assert_ERROR cond!1 cond!2))
        false)))

; if else
(assert
  (forall ((cond!1 Int))
    (=> (and (not (not (not (= cond!1 0))))
             ($__VERIFIER_assert_pre cond!1))
        ($__VERIFIER_assert_if1 cond!1 cond!1))))

; post __VERIFIER_assert
(assert
  (forall ((cond!1 Int) (cond!3 Int))
    (=> (and ($__VERIFIER_assert_if1 cond!1 cond!3))
        (__VERIFIER_assert cond!1))))

; loop entry $main_inv1 (line 24)
(assert
  (forall ((condition!17 Int) (var!18 Int) (poly!6 Int) (varToPolyIndices!9 Int) (term!10 Int) (processedIndices!8 Int) (val!20 Int) (hasSubstitution!19 Int) (substitutions!4 Int) (zeroPolynomials!5 Int) (i!13 Int) (new_keys!7 Int) (changed!14 Int) (index!11 Int))
    (=> (and (<= 5 poly!6)
             (<= poly!6 100)
             (<= 10 zeroPolynomials!5)
             (<= zeroPolynomials!5 100)
             (= changed!14 0)
             (= i!13 0)
             (= var!18 0)
             (= index!11 0)
             (= term!10 0)
             (= varToPolyIndices!9 0)
             (= processedIndices!8 0)
             (= new_keys!7 0)
             (= substitutions!4 0))
        ($main_inv1 substitutions!4 zeroPolynomials!5 poly!6 new_keys!7 processedIndices!8 varToPolyIndices!9 term!10 index!11 var!18 i!13 changed!14 var!18 hasSubstitution!19 condition!17 var!18 hasSubstitution!19 val!20))))

; loop term $main_sum1 (line 24)
(assert
  (forall ((index!28 Int) (varToPolyIndices!26 Int) (new_keys!24 Int) (changed!31 Int) (val!37 Int) (substitutions!21 Int) (term!27 Int) (zeroPolynomials!22 Int) (var!35 Int) (hasSubstitution!36 Int) (i!30 Int) (processedIndices!25 Int) (condition!34 Int) (poly!23 Int))
    (=> (and (not (= 1 1))
             ($main_inv1 substitutions!21 zeroPolynomials!22 poly!23 new_keys!24 processedIndices!25 varToPolyIndices!26 term!27 index!28 var!35 i!30 changed!31 var!35 hasSubstitution!36 condition!34 var!35 hasSubstitution!36 val!37))
        ($main_sum1 substitutions!21 zeroPolynomials!22 poly!23 new_keys!24 processedIndices!25 varToPolyIndices!26 term!27 index!28 var!35 i!30 changed!31 var!35 hasSubstitution!36 condition!34 var!35 hasSubstitution!36 val!37))))

; loop entry $main_inv2 (line 25)
(assert
  (forall ((index!28 Int) (varToPolyIndices!26 Int) (new_keys!24 Int) (changed!31 Int) (val!37 Int) (substitutions!21 Int) (term!27 Int) (zeroPolynomials!22 Int) (var!35 Int) (hasSubstitution!36 Int) (i!30 Int) (processedIndices!25 Int) (condition!34 Int) (poly!23 Int))
    (=> (and (= 1 1)
             ($main_inv1 substitutions!21 zeroPolynomials!22 poly!23 new_keys!24 processedIndices!25 varToPolyIndices!26 term!27 index!28 var!35 i!30 changed!31 var!35 hasSubstitution!36 condition!34 var!35 hasSubstitution!36 val!37))
        ($main_inv2 substitutions!21 zeroPolynomials!22 poly!23 new_keys!24 processedIndices!25 varToPolyIndices!26 term!27 index!28 var!35 i!30 changed!31 var!35 hasSubstitution!36 condition!34 var!35 hasSubstitution!36 val!37))))

; loop term $main_sum2 (line 25)
(assert
  (forall ((varToPolyIndices!43 Int) (new_keys!41 Int) (substitutions!38 Int) (processedIndices!42 Int) (hasSubstitution!53 Int) (term!44 Int) (zeroPolynomials!39 Int) (changed!48 Int) (poly!40 Int) (index!45 Int) (condition!51 Int) (var!52 Int) (val!54 Int) (i!47 Int))
    (=> (and (not (< i!47 zeroPolynomials!39))
             ($main_inv2 substitutions!38 zeroPolynomials!39 poly!40 new_keys!41 processedIndices!42 varToPolyIndices!43 term!44 index!45 var!52 i!47 changed!48 var!52 hasSubstitution!53 condition!51 var!52 hasSubstitution!53 val!54))
        ($main_sum2 substitutions!38 zeroPolynomials!39 poly!40 new_keys!41 processedIndices!42 varToPolyIndices!43 term!44 index!45 var!52 i!47 changed!48 var!52 hasSubstitution!53 condition!51 var!52 hasSubstitution!53 val!54))))

; if then
(assert
  (forall ((varToPolyIndices!43 Int) (new_keys!41 Int) (substitutions!38 Int) (processedIndices!42 Int) (hasSubstitution!53 Int) (term!44 Int) (zeroPolynomials!39 Int) (changed!48 Int) (poly!40 Int) (index!45 Int) (condition!51 Int) (var!52 Int) (val!54 Int) (i!47 Int))
    (=> (and (= poly!40 0)
             (< i!47 zeroPolynomials!39)
             ($main_inv2 substitutions!38 zeroPolynomials!39 poly!40 new_keys!41 processedIndices!42 varToPolyIndices!43 term!44 index!45 var!52 i!47 changed!48 var!52 hasSubstitution!53 condition!51 var!52 hasSubstitution!53 val!54))
        ($main_if2 substitutions!38 zeroPolynomials!39 poly!40 new_keys!41 processedIndices!42 varToPolyIndices!43 term!44 index!45 var!52 i!47 changed!48 var!52 hasSubstitution!53 condition!51 var!52 hasSubstitution!53 val!54 substitutions!38 zeroPolynomials!39 poly!40 new_keys!41 (+ processedIndices!42 1) varToPolyIndices!43 term!44 index!45 0 (+ i!47 1) changed!48 0 hasSubstitution!53 condition!51 0 hasSubstitution!53 val!54))))

; if else
(assert
  (forall ((varToPolyIndices!43 Int) (new_keys!41 Int) (substitutions!38 Int) (processedIndices!42 Int) (hasSubstitution!53 Int) (term!44 Int) (zeroPolynomials!39 Int) (changed!48 Int) (poly!40 Int) (index!45 Int) (condition!51 Int) (var!52 Int) (val!54 Int) (i!47 Int))
    (=> (and (not (= poly!40 0))
             (< i!47 zeroPolynomials!39)
             ($main_inv2 substitutions!38 zeroPolynomials!39 poly!40 new_keys!41 processedIndices!42 varToPolyIndices!43 term!44 index!45 var!52 i!47 changed!48 var!52 hasSubstitution!53 condition!51 var!52 hasSubstitution!53 val!54))
        ($main_if2 substitutions!38 zeroPolynomials!39 poly!40 new_keys!41 processedIndices!42 varToPolyIndices!43 term!44 index!45 var!52 i!47 changed!48 var!52 hasSubstitution!53 condition!51 var!52 hasSubstitution!53 val!54 substitutions!38 zeroPolynomials!39 poly!40 new_keys!41 processedIndices!42 varToPolyIndices!43 term!44 index!45 0 i!47 changed!48 0 hasSubstitution!53 condition!51 0 hasSubstitution!53 val!54))))

; loop entry $main_inv3 (line 31)
(assert
  (forall ((varToPolyIndices!43 Int) (condition!68 Int) (i!64 Int) (new_keys!41 Int) (substitutions!38 Int) (processedIndices!42 Int) (val!71 Int) (new_keys!58 Int) (varToPolyIndices!60 Int) (term!44 Int) (changed!48 Int) (poly!40 Int) (index!45 Int) (condition!51 Int) (var!52 Int) (index!62 Int) (hasSubstitution!70 Int) (val!54 Int) (i!47 Int) (var!69 Int) (processedIndices!59 Int) (zeroPolynomials!56 Int) (hasSubstitution!53 Int) (poly!57 Int) (substitutions!55 Int) (changed!65 Int) (term!61 Int) (zeroPolynomials!39 Int))
    (=> (and ($main_if2 substitutions!38 zeroPolynomials!39 poly!40 new_keys!41 processedIndices!42 varToPolyIndices!43 term!44 index!45 var!52 i!47 changed!48 var!52 hasSubstitution!53 condition!51 var!52 hasSubstitution!53 val!54 substitutions!55 zeroPolynomials!56 poly!57 new_keys!58 processedIndices!59 varToPolyIndices!60 term!61 index!62 var!69 i!64 changed!65 var!69 hasSubstitution!70 condition!68 var!69 hasSubstitution!70 val!71))
        ($main_inv3 substitutions!55 zeroPolynomials!56 poly!57 new_keys!58 processedIndices!59 varToPolyIndices!60 term!61 index!62 var!69 i!64 changed!65 var!69 hasSubstitution!70 condition!68 var!69 hasSubstitution!70 val!71))))

; loop term $main_sum3 (line 31)
(assert
  (forall ((i!81 Int) (processedIndices!76 Int) (var!86 Int) (condition!85 Int) (poly!74 Int) (new_keys!75 Int) (term!78 Int) (zeroPolynomials!73 Int) (varToPolyIndices!77 Int) (hasSubstitution!87 Int) (val!88 Int) (changed!82 Int) (substitutions!72 Int) (index!79 Int))
    (=> (and (not (< term!78 poly!74))
             ($main_inv3 substitutions!72 zeroPolynomials!73 poly!74 new_keys!75 processedIndices!76 varToPolyIndices!77 term!78 index!79 var!86 i!81 changed!82 var!86 hasSubstitution!87 condition!85 var!86 hasSubstitution!87 val!88))
        ($main_sum3 substitutions!72 zeroPolynomials!73 poly!74 new_keys!75 processedIndices!76 varToPolyIndices!77 term!78 index!79 var!86 i!81 changed!82 var!86 hasSubstitution!87 condition!85 var!86 hasSubstitution!87 val!88))))

; forwards $main_inv3 (line 31)
(assert
  (forall ((i!81 Int) (processedIndices!76 Int) (var!86 Int) (condition!85 Int) (poly!74 Int) (new_keys!75 Int) (term!78 Int) (zeroPolynomials!73 Int) (varToPolyIndices!77 Int) (hasSubstitution!87 Int) (val!88 Int) (changed!82 Int) (substitutions!72 Int) (index!79 Int))
    (=> (and (< term!78 poly!74)
             ($main_inv3 substitutions!72 zeroPolynomials!73 poly!74 new_keys!75 processedIndices!76 varToPolyIndices!77 term!78 index!79 var!86 i!81 changed!82 var!86 hasSubstitution!87 condition!85 var!86 hasSubstitution!87 val!88))
        ($main_inv3 substitutions!72 zeroPolynomials!73 poly!74 new_keys!75 processedIndices!76 (+ varToPolyIndices!77 1) (+ term!78 1) index!79 var!86 i!81 changed!82 var!86 hasSubstitution!87 condition!85 var!86 hasSubstitution!87 val!88))))

; if then
(assert
  (forall ((new_keys!41 Int) (substitutions!38 Int) (processedIndices!42 Int) (zeroPolynomials!90 Int) (new_keys!92 Int) (poly!91 Int) (hasSubstitution!104 Int) (index!96 Int) (changed!99 Int) (term!44 Int) (varToPolyIndices!94 Int) (condition!102 Int) (zeroPolynomials!39 Int) (poly!40 Int) (i!98 Int) (index!45 Int) (condition!51 Int) (var!52 Int) (substitutions!89 Int) (varToPolyIndices!43 Int) (processedIndices!93 Int) (var!103 Int) (val!54 Int) (i!47 Int) (val!105 Int) (hasSubstitution!53 Int) (term!95 Int) (changed!48 Int))
    (=> (and (> hasSubstitution!104 0)
             (= var!103 term!95)
             (= poly!91 1)
             ($main_sum3 substitutions!89 zeroPolynomials!90 poly!91 new_keys!92 processedIndices!93 varToPolyIndices!94 term!95 index!96 var!103 i!98 changed!99 var!103 hasSubstitution!104 condition!102 var!103 hasSubstitution!104 val!105))
        ($main_if3 substitutions!38 zeroPolynomials!39 poly!40 new_keys!41 processedIndices!42 varToPolyIndices!43 term!44 index!45 var!52 i!47 changed!48 var!52 hasSubstitution!53 condition!51 var!52 hasSubstitution!53 val!54 (+ substitutions!89 1) zeroPolynomials!90 poly!91 (+ new_keys!92 1) processedIndices!93 varToPolyIndices!94 term!95 index!96 var!103 i!98 changed!99 var!103 hasSubstitution!104 condition!102 var!103 hasSubstitution!104 val!105))))

; if else
(assert
  (forall ((new_keys!41 Int) (substitutions!38 Int) (processedIndices!42 Int) (zeroPolynomials!90 Int) (new_keys!92 Int) (poly!91 Int) (hasSubstitution!104 Int) (index!96 Int) (changed!99 Int) (term!44 Int) (varToPolyIndices!94 Int) (condition!102 Int) (zeroPolynomials!39 Int) (poly!40 Int) (i!98 Int) (index!45 Int) (condition!51 Int) (var!52 Int) (substitutions!89 Int) (varToPolyIndices!43 Int) (processedIndices!93 Int) (var!103 Int) (val!54 Int) (i!47 Int) (val!105 Int) (hasSubstitution!53 Int) (term!95 Int) (changed!48 Int))
    (=> (and (not (> hasSubstitution!104 0))
             (= var!103 term!95)
             (= poly!91 1)
             ($main_sum3 substitutions!89 zeroPolynomials!90 poly!91 new_keys!92 processedIndices!93 varToPolyIndices!94 term!95 index!96 var!103 i!98 changed!99 var!103 hasSubstitution!104 condition!102 var!103 hasSubstitution!104 val!105))
        ($main_if3 substitutions!38 zeroPolynomials!39 poly!40 new_keys!41 processedIndices!42 varToPolyIndices!43 term!44 index!45 var!52 i!47 changed!48 var!52 hasSubstitution!53 condition!51 var!52 hasSubstitution!53 val!54 substitutions!89 zeroPolynomials!90 poly!91 new_keys!92 processedIndices!93 varToPolyIndices!94 term!95 index!96 var!103 i!98 changed!99 var!103 hasSubstitution!104 condition!102 var!103 hasSubstitution!104 val!105))))

; if then
(assert
  (forall ((new_keys!41 Int) (substitutions!38 Int) (processedIndices!42 Int) (zeroPolynomials!90 Int) (new_keys!92 Int) (poly!91 Int) (hasSubstitution!104 Int) (index!96 Int) (changed!99 Int) (term!44 Int) (varToPolyIndices!94 Int) (condition!102 Int) (zeroPolynomials!39 Int) (poly!40 Int) (i!98 Int) (index!45 Int) (condition!51 Int) (var!52 Int) (substitutions!89 Int) (varToPolyIndices!43 Int) (processedIndices!93 Int) (var!103 Int) (val!54 Int) (i!47 Int) (val!105 Int) (hasSubstitution!53 Int) (term!95 Int) (changed!48 Int))
    (=> (and (> hasSubstitution!104 0)
             (> condition!102 0)
             (not (= poly!91 1))
             ($main_sum3 substitutions!89 zeroPolynomials!90 poly!91 new_keys!92 processedIndices!93 varToPolyIndices!94 term!95 index!96 var!103 i!98 changed!99 var!103 hasSubstitution!104 condition!102 var!103 hasSubstitution!104 val!105))
        ($main_if4 substitutions!38 zeroPolynomials!39 poly!40 new_keys!41 processedIndices!42 varToPolyIndices!43 term!44 index!45 var!52 i!47 changed!48 var!52 hasSubstitution!53 condition!51 var!52 hasSubstitution!53 val!54 (+ substitutions!89 1) zeroPolynomials!90 poly!91 (+ new_keys!92 1) processedIndices!93 varToPolyIndices!94 term!95 index!96 var!103 i!98 changed!99 var!103 hasSubstitution!104 condition!102 var!103 hasSubstitution!104 val!105))))

; if else
(assert
  (forall ((new_keys!41 Int) (substitutions!38 Int) (processedIndices!42 Int) (zeroPolynomials!90 Int) (new_keys!92 Int) (poly!91 Int) (hasSubstitution!104 Int) (index!96 Int) (changed!99 Int) (term!44 Int) (varToPolyIndices!94 Int) (condition!102 Int) (zeroPolynomials!39 Int) (poly!40 Int) (i!98 Int) (index!45 Int) (condition!51 Int) (var!52 Int) (substitutions!89 Int) (varToPolyIndices!43 Int) (processedIndices!93 Int) (var!103 Int) (val!54 Int) (i!47 Int) (val!105 Int) (hasSubstitution!53 Int) (term!95 Int) (changed!48 Int))
    (=> (and (not (> hasSubstitution!104 0))
             (> condition!102 0)
             (not (= poly!91 1))
             ($main_sum3 substitutions!89 zeroPolynomials!90 poly!91 new_keys!92 processedIndices!93 varToPolyIndices!94 term!95 index!96 var!103 i!98 changed!99 var!103 hasSubstitution!104 condition!102 var!103 hasSubstitution!104 val!105))
        ($main_if4 substitutions!38 zeroPolynomials!39 poly!40 new_keys!41 processedIndices!42 varToPolyIndices!43 term!44 index!45 var!52 i!47 changed!48 var!52 hasSubstitution!53 condition!51 var!52 hasSubstitution!53 val!54 substitutions!89 zeroPolynomials!90 poly!91 new_keys!92 processedIndices!93 varToPolyIndices!94 term!95 index!96 var!103 i!98 changed!99 var!103 hasSubstitution!104 condition!102 var!103 hasSubstitution!104 val!105))))

; if then
(assert
  (forall ((varToPolyIndices!43 Int) (term!129 Int) (new_keys!41 Int) (substitutions!38 Int) (processedIndices!42 Int) (condition!136 Int) (term!44 Int) (index!130 Int) (changed!133 Int) (zeroPolynomials!39 Int) (poly!40 Int) (varToPolyIndices!128 Int) (processedIndices!127 Int) (condition!51 Int) (var!52 Int) (val!54 Int) (i!47 Int) (poly!125 Int) (hasSubstitution!53 Int) (i!132 Int) (var!137 Int) (hasSubstitution!138 Int) (changed!48 Int) (new_keys!126 Int) (val!139 Int) (substitutions!123 Int) (zeroPolynomials!124 Int) (index!45 Int))
    (=> (and ($main_if4 substitutions!38 zeroPolynomials!39 poly!40 new_keys!41 processedIndices!42 varToPolyIndices!43 term!44 index!45 var!52 i!47 changed!48 var!52 hasSubstitution!53 condition!51 var!52 hasSubstitution!53 val!54 substitutions!123 zeroPolynomials!124 poly!125 new_keys!126 processedIndices!127 varToPolyIndices!128 term!129 index!130 var!137 i!132 changed!133 var!137 hasSubstitution!138 condition!136 var!137 hasSubstitution!138 val!139))
        ($main_if5 substitutions!38 zeroPolynomials!39 poly!40 new_keys!41 processedIndices!42 varToPolyIndices!43 term!44 index!45 var!52 i!47 changed!48 var!52 hasSubstitution!53 condition!51 var!52 hasSubstitution!53 val!54 substitutions!123 zeroPolynomials!124 poly!125 new_keys!126 (+ processedIndices!127 1) (- varToPolyIndices!128 1) term!129 index!130 var!137 (+ i!132 1) changed!133 var!137 hasSubstitution!138 condition!136 var!137 hasSubstitution!138 val!139))))

; if else
(assert
  (forall ((new_keys!41 Int) (substitutions!38 Int) (processedIndices!42 Int) (zeroPolynomials!90 Int) (new_keys!92 Int) (poly!91 Int) (hasSubstitution!104 Int) (index!96 Int) (changed!99 Int) (term!44 Int) (varToPolyIndices!94 Int) (condition!102 Int) (zeroPolynomials!39 Int) (poly!40 Int) (i!98 Int) (index!45 Int) (condition!51 Int) (var!52 Int) (substitutions!89 Int) (varToPolyIndices!43 Int) (processedIndices!93 Int) (var!103 Int) (val!54 Int) (i!47 Int) (val!105 Int) (hasSubstitution!53 Int) (term!95 Int) (changed!48 Int))
    (=> (and (not (> condition!102 0))
             (not (= poly!91 1))
             ($main_sum3 substitutions!89 zeroPolynomials!90 poly!91 new_keys!92 processedIndices!93 varToPolyIndices!94 term!95 index!96 var!103 i!98 changed!99 var!103 hasSubstitution!104 condition!102 var!103 hasSubstitution!104 val!105))
        ($main_if5 substitutions!38 zeroPolynomials!39 poly!40 new_keys!41 processedIndices!42 varToPolyIndices!43 term!44 index!45 var!52 i!47 changed!48 var!52 hasSubstitution!53 condition!51 var!52 hasSubstitution!53 val!54 substitutions!89 zeroPolynomials!90 poly!91 new_keys!92 processedIndices!93 varToPolyIndices!94 term!95 index!96 var!103 (+ i!98 1) changed!99 var!103 hasSubstitution!104 condition!102 var!103 hasSubstitution!104 val!105))))

; if then
(assert
  (forall ((varToPolyIndices!43 Int) (new_keys!109 Int) (condition!119 Int) (new_keys!41 Int) (processedIndices!42 Int) (poly!108 Int) (hasSubstitution!53 Int) (val!122 Int) (term!44 Int) (zeroPolynomials!39 Int) (changed!48 Int) (poly!40 Int) (processedIndices!110 Int) (term!112 Int) (index!45 Int) (zeroPolynomials!107 Int) (substitutions!106 Int) (index!113 Int) (condition!51 Int) (var!52 Int) (hasSubstitution!121 Int) (i!115 Int) (var!120 Int) (changed!116 Int) (substitutions!38 Int) (varToPolyIndices!111 Int) (val!54 Int) (i!47 Int))
    (=> (and ($main_if3 substitutions!38 zeroPolynomials!39 poly!40 new_keys!41 processedIndices!42 varToPolyIndices!43 term!44 index!45 var!52 i!47 changed!48 var!52 hasSubstitution!53 condition!51 var!52 hasSubstitution!53 val!54 substitutions!106 zeroPolynomials!107 poly!108 new_keys!109 processedIndices!110 varToPolyIndices!111 term!112 index!113 var!120 i!115 changed!116 var!120 hasSubstitution!121 condition!119 var!120 hasSubstitution!121 val!122))
        ($main_if6 substitutions!38 zeroPolynomials!39 poly!40 new_keys!41 processedIndices!42 varToPolyIndices!43 term!44 index!45 var!52 i!47 changed!48 var!52 hasSubstitution!53 condition!51 var!52 hasSubstitution!53 val!54 substitutions!106 zeroPolynomials!107 poly!108 new_keys!109 (+ processedIndices!110 1) (- varToPolyIndices!111 1) term!112 index!113 var!120 (+ i!115 1) changed!116 var!120 hasSubstitution!121 condition!119 var!120 hasSubstitution!121 val!122))))

; if else
(assert
  (forall ((varToPolyIndices!43 Int) (index!147 Int) (var!154 Int) (substitutions!38 Int) (term!146 Int) (i!149 Int) (hasSubstitution!53 Int) (new_keys!143 Int) (zeroPolynomials!141 Int) (zeroPolynomials!39 Int) (changed!48 Int) (poly!40 Int) (condition!153 Int) (varToPolyIndices!145 Int) (index!45 Int) (condition!51 Int) (var!52 Int) (new_keys!41 Int) (hasSubstitution!155 Int) (processedIndices!42 Int) (poly!142 Int) (processedIndices!144 Int) (val!54 Int) (i!47 Int) (changed!150 Int) (substitutions!140 Int) (val!156 Int) (term!44 Int))
    (=> (and ($main_if5 substitutions!38 zeroPolynomials!39 poly!40 new_keys!41 processedIndices!42 varToPolyIndices!43 term!44 index!45 var!52 i!47 changed!48 var!52 hasSubstitution!53 condition!51 var!52 hasSubstitution!53 val!54 substitutions!140 zeroPolynomials!141 poly!142 new_keys!143 processedIndices!144 varToPolyIndices!145 term!146 index!147 var!154 i!149 changed!150 var!154 hasSubstitution!155 condition!153 var!154 hasSubstitution!155 val!156))
        ($main_if6 substitutions!38 zeroPolynomials!39 poly!40 new_keys!41 processedIndices!42 varToPolyIndices!43 term!44 index!45 var!52 i!47 changed!48 var!52 hasSubstitution!53 condition!51 var!52 hasSubstitution!53 val!54 substitutions!140 zeroPolynomials!141 poly!142 new_keys!143 processedIndices!144 varToPolyIndices!145 term!146 index!147 var!154 i!149 changed!150 var!154 hasSubstitution!155 condition!153 var!154 hasSubstitution!155 val!156))))

; forwards $main_inv2 (line 25)
(assert
  (forall ((varToPolyIndices!43 Int) (substitutions!38 Int) (new_keys!160 Int) (zeroPolynomials!158 Int) (hasSubstitution!53 Int) (condition!170 Int) (term!44 Int) (changed!48 Int) (poly!40 Int) (processedIndices!161 Int) (hasSubstitution!172 Int) (index!45 Int) (condition!51 Int) (var!171 Int) (var!52 Int) (new_keys!41 Int) (changed!167 Int) (val!173 Int) (processedIndices!42 Int) (poly!159 Int) (val!54 Int) (i!47 Int) (substitutions!157 Int) (index!164 Int) (i!166 Int) (term!163 Int) (varToPolyIndices!162 Int) (zeroPolynomials!39 Int))
    (=> (and ($main_if6 substitutions!38 zeroPolynomials!39 poly!40 new_keys!41 processedIndices!42 varToPolyIndices!43 term!44 index!45 var!52 i!47 changed!48 var!52 hasSubstitution!53 condition!51 var!52 hasSubstitution!53 val!54 substitutions!157 zeroPolynomials!158 poly!159 new_keys!160 processedIndices!161 varToPolyIndices!162 term!163 index!164 var!171 i!166 changed!167 var!171 hasSubstitution!172 condition!170 var!171 hasSubstitution!172 val!173))
        ($main_inv2 substitutions!157 zeroPolynomials!158 poly!159 new_keys!160 processedIndices!161 varToPolyIndices!162 0 index!164 var!171 i!166 changed!167 var!171 hasSubstitution!172 condition!170 var!171 hasSubstitution!172 val!173))))

; loop entry $main_inv4 (line 67)
(assert
  (forall ((i!183 Int) (new_keys!177 Int) (index!181 Int) (processedIndices!178 Int) (hasSubstitution!189 Int) (term!180 Int) (zeroPolynomials!175 Int) (varToPolyIndices!179 Int) (condition!187 Int) (substitutions!174 Int) (poly!176 Int) (var!188 Int) (val!190 Int) (changed!184 Int))
    (=> (and ($main_sum2 substitutions!174 zeroPolynomials!175 poly!176 new_keys!177 processedIndices!178 varToPolyIndices!179 term!180 index!181 var!188 i!183 changed!184 var!188 hasSubstitution!189 condition!187 var!188 hasSubstitution!189 val!190))
        ($main_inv4 substitutions!174 zeroPolynomials!175 poly!176 new_keys!177 processedIndices!178 varToPolyIndices!179 term!180 index!181 var!188 i!183 changed!184 var!188 hasSubstitution!189 condition!187 var!188 hasSubstitution!189 val!190))))

; loop term $main_sum4 (line 67)
(assert
  (forall ((varToPolyIndices!196 Int) (hasSubstitution!206 Int) (new_keys!194 Int) (processedIndices!195 Int) (index!198 Int) (i!200 Int) (condition!204 Int) (val!207 Int) (poly!193 Int) (substitutions!191 Int) (changed!201 Int) (var!205 Int) (term!197 Int) (zeroPolynomials!192 Int))
    (=> (and (not (< var!205 new_keys!194))
             ($main_inv4 substitutions!191 zeroPolynomials!192 poly!193 new_keys!194 processedIndices!195 varToPolyIndices!196 term!197 index!198 var!205 i!200 changed!201 var!205 hasSubstitution!206 condition!204 var!205 hasSubstitution!206 val!207))
        ($main_sum4 substitutions!191 zeroPolynomials!192 poly!193 new_keys!194 processedIndices!195 varToPolyIndices!196 term!197 index!198 var!205 i!200 changed!201 var!205 hasSubstitution!206 condition!204 var!205 hasSubstitution!206 val!207))))

; loop entry $main_inv5 (line 68)
(assert
  (forall ((varToPolyIndices!196 Int) (hasSubstitution!206 Int) (new_keys!194 Int) (processedIndices!195 Int) (index!198 Int) (i!200 Int) (condition!204 Int) (val!207 Int) (poly!193 Int) (substitutions!191 Int) (changed!201 Int) (var!205 Int) (term!197 Int) (zeroPolynomials!192 Int))
    (=> (and (< var!205 new_keys!194)
             ($main_inv4 substitutions!191 zeroPolynomials!192 poly!193 new_keys!194 processedIndices!195 varToPolyIndices!196 term!197 index!198 var!205 i!200 changed!201 var!205 hasSubstitution!206 condition!204 var!205 hasSubstitution!206 val!207))
        ($main_inv5 substitutions!191 zeroPolynomials!192 poly!193 new_keys!194 processedIndices!195 varToPolyIndices!196 term!197 index!198 var!205 i!200 changed!201 var!205 hasSubstitution!206 condition!204 var!205 hasSubstitution!206 val!207))))

; loop term $main_sum5 (line 68)
(assert
  (forall ((substitutions!208 Int) (condition!221 Int) (val!224 Int) (changed!218 Int) (var!222 Int) (index!215 Int) (poly!210 Int) (processedIndices!212 Int) (i!217 Int) (varToPolyIndices!213 Int) (new_keys!211 Int) (zeroPolynomials!209 Int) (term!214 Int) (hasSubstitution!223 Int))
    (=> (and (not (< index!215 varToPolyIndices!213))
             ($main_inv5 substitutions!208 zeroPolynomials!209 poly!210 new_keys!211 processedIndices!212 varToPolyIndices!213 term!214 index!215 var!222 i!217 changed!218 var!222 hasSubstitution!223 condition!221 var!222 hasSubstitution!223 val!224))
        ($main_sum5 substitutions!208 zeroPolynomials!209 poly!210 new_keys!211 processedIndices!212 varToPolyIndices!213 term!214 index!215 var!222 i!217 changed!218 var!222 hasSubstitution!223 condition!221 var!222 hasSubstitution!223 val!224))))

; forwards $main_inv5 (line 68)
(assert
  (forall ((substitutions!208 Int) (condition!221 Int) (val!224 Int) (changed!218 Int) (var!222 Int) (index!215 Int) (poly!210 Int) (processedIndices!212 Int) (i!217 Int) (varToPolyIndices!213 Int) (new_keys!211 Int) (zeroPolynomials!209 Int) (term!214 Int) (hasSubstitution!223 Int))
    (=> (and (< index!215 varToPolyIndices!213)
             ($main_inv5 substitutions!208 zeroPolynomials!209 poly!210 new_keys!211 processedIndices!212 varToPolyIndices!213 term!214 index!215 var!222 i!217 changed!218 var!222 hasSubstitution!223 condition!221 var!222 hasSubstitution!223 val!224))
        ($main_inv5 substitutions!208 zeroPolynomials!209 poly!210 new_keys!211 processedIndices!212 varToPolyIndices!213 term!214 (+ index!215 1) var!222 i!217 (+ changed!218 1) var!222 hasSubstitution!223 condition!221 var!222 hasSubstitution!223 val!224))))

; forwards $main_inv4 (line 67)
(assert
  (forall ((substitutions!225 Int) (val!241 Int) (hasSubstitution!240 Int) (index!232 Int) (processedIndices!229 Int) (condition!238 Int) (changed!235 Int) (poly!227 Int) (new_keys!228 Int) (var!239 Int) (zeroPolynomials!226 Int) (term!231 Int) (varToPolyIndices!230 Int) (i!234 Int))
    (=> (and ($main_sum5 substitutions!225 zeroPolynomials!226 poly!227 new_keys!228 processedIndices!229 varToPolyIndices!230 term!231 index!232 var!239 i!234 changed!235 var!239 hasSubstitution!240 condition!238 var!239 hasSubstitution!240 val!241))
        ($main_inv4 substitutions!225 zeroPolynomials!226 poly!227 new_keys!228 processedIndices!229 varToPolyIndices!230 term!231 index!232 (+ var!239 2) i!234 changed!235 (+ var!239 2) hasSubstitution!240 condition!238 (+ var!239 2) hasSubstitution!240 val!241))))

; break $main_sum1
(assert
  (forall ((processedIndices!246 Int) (substitutions!242 Int) (hasSubstitution!257 Int) (poly!244 Int) (index!249 Int) (changed!252 Int) (zeroPolynomials!243 Int) (val!258 Int) (term!248 Int) (i!251 Int) (condition!255 Int) (var!256 Int) (varToPolyIndices!247 Int) (new_keys!245 Int))
    (=> (and (= changed!252 0)
             ($main_sum4 substitutions!242 zeroPolynomials!243 poly!244 new_keys!245 processedIndices!246 varToPolyIndices!247 term!248 index!249 var!256 i!251 changed!252 var!256 hasSubstitution!257 condition!255 var!256 hasSubstitution!257 val!258))
        ($main_sum1 substitutions!242 zeroPolynomials!243 poly!244 new_keys!245 processedIndices!246 varToPolyIndices!247 term!248 index!249 var!256 0 changed!252 var!256 hasSubstitution!257 condition!255 var!256 hasSubstitution!257 val!258))))

; if else
(assert
  (forall ((processedIndices!246 Int) (index!28 Int) (substitutions!242 Int) (varToPolyIndices!26 Int) (hasSubstitution!257 Int) (poly!244 Int) (new_keys!24 Int) (index!249 Int) (val!37 Int) (val!258 Int) (substitutions!21 Int) (term!248 Int) (term!27 Int) (zeroPolynomials!22 Int) (i!251 Int) (condition!255 Int) (var!35 Int) (changed!252 Int) (hasSubstitution!36 Int) (i!30 Int) (changed!31 Int) (zeroPolynomials!243 Int) (var!256 Int) (varToPolyIndices!247 Int) (new_keys!245 Int) (processedIndices!25 Int) (condition!34 Int) (poly!23 Int))
    (=> (and (not (= changed!252 0))
             ($main_sum4 substitutions!242 zeroPolynomials!243 poly!244 new_keys!245 processedIndices!246 varToPolyIndices!247 term!248 index!249 var!256 i!251 changed!252 var!256 hasSubstitution!257 condition!255 var!256 hasSubstitution!257 val!258))
        ($main_if7 substitutions!21 zeroPolynomials!22 poly!23 new_keys!24 processedIndices!25 varToPolyIndices!26 term!27 index!28 var!35 i!30 changed!31 var!35 hasSubstitution!36 condition!34 var!35 hasSubstitution!36 val!37 substitutions!242 zeroPolynomials!243 poly!244 new_keys!245 processedIndices!246 varToPolyIndices!247 term!248 index!249 var!256 0 changed!252 var!256 hasSubstitution!257 condition!255 var!256 hasSubstitution!257 val!258))))

; forwards $main_inv1 (line 24)
(assert
  (forall ((term!265 Int) (index!266 Int) (index!28 Int) (changed!269 Int) (processedIndices!263 Int) (condition!272 Int) (val!275 Int) (substitutions!21 Int) (term!27 Int) (zeroPolynomials!22 Int) (varToPolyIndices!26 Int) (i!268 Int) (new_keys!24 Int) (hasSubstitution!274 Int) (var!35 Int) (hasSubstitution!36 Int) (i!30 Int) (changed!31 Int) (poly!261 Int) (varToPolyIndices!264 Int) (val!37 Int) (substitutions!259 Int) (processedIndices!25 Int) (condition!34 Int) (zeroPolynomials!260 Int) (poly!23 Int) (var!273 Int) (new_keys!262 Int))
    (=> (and ($main_if7 substitutions!21 zeroPolynomials!22 poly!23 new_keys!24 processedIndices!25 varToPolyIndices!26 term!27 index!28 var!35 i!30 changed!31 var!35 hasSubstitution!36 condition!34 var!35 hasSubstitution!36 val!37 substitutions!259 zeroPolynomials!260 poly!261 new_keys!262 processedIndices!263 varToPolyIndices!264 term!265 index!266 var!273 i!268 changed!269 var!273 hasSubstitution!274 condition!272 var!273 hasSubstitution!274 val!275))
        ($main_inv1 substitutions!259 zeroPolynomials!260 poly!261 new_keys!262 processedIndices!263 varToPolyIndices!264 term!265 index!266 var!273 i!268 0 var!273 hasSubstitution!274 condition!272 var!273 hasSubstitution!274 val!275))))

; VERIFIER_assert (>= var!290 new_keys!279)
(assert
  (forall ((hasSubstitution!291 Int) (poly!278 Int) (varToPolyIndices!281 Int) (substitutions!276 Int) (term!282 Int) (processedIndices!280 Int) (i!285 Int) (changed!286 Int) (zeroPolynomials!277 Int) (val!292 Int) (index!283 Int) (new_keys!279 Int) (var!290 Int) (condition!289 Int))
    (=> (and (not (>= var!290 new_keys!279))
             ($main_sum1 substitutions!276 zeroPolynomials!277 poly!278 new_keys!279 processedIndices!280 varToPolyIndices!281 term!282 index!283 var!290 i!285 changed!286 var!290 hasSubstitution!291 condition!289 var!290 hasSubstitution!291 val!292))
        false)))

(check-sat)
